SECTION Graph
Nodes 572
Edges 963
E 1 2 5
E 2 3 5
E 3 4 5
E 4 5 5
E 5 6 5
E 6 7 5
E 7 8 5
E 8 9 5
E 9 10 5
E 10 11 5
E 11 12 5
E 12 13 5
E 13 14 5
E 14 15 5
E 15 16 5
E 16 17 5
E 17 18 5
E 18 19 5
E 19 20 5
E 20 21 5
E 21 22 5
E 22 23 5
E 23 24 5
E 24 25 5
E 25 26 5
E 26 27 5
E 27 28 5
E 28 29 5
E 29 30 5
E 30 31 5
E 31 32 5
E 32 33 5
E 1 34 13
E 2 35 13
E 3 36 13
E 4 37 13
E 5 38 13
E 6 39 13
E 7 40 13
E 8 41 13
E 9 42 13
E 10 43 13
E 11 44 13
E 12 45 13
E 13 46 13
E 14 47 13
E 15 48 13
E 16 49 13
E 18 50 13
E 19 51 13
E 23 52 13
E 24 53 13
E 25 54 13
E 26 55 13
E 27 56 13
E 28 57 13
E 29 58 13
E 30 59 13
E 31 60 13
E 32 61 13
E 33 62 13
E 34 35 5
E 35 36 5
E 36 37 5
E 37 38 5
E 38 39 5
E 39 40 5
E 40 41 5
E 41 42 5
E 42 43 5
E 43 44 5
E 44 45 5
E 45 46 5
E 46 47 5
E 47 48 5
E 48 49 5
E 50 51 5
E 52 53 5
E 53 54 5
E 54 55 5
E 55 56 5
E 56 57 5
E 57 58 5
E 58 59 5
E 59 60 5
E 60 61 5
E 61 62 5
E 34 63 13
E 35 64 13
E 36 65 13
E 37 66 13
E 38 67 13
E 40 68 13
E 41 69 13
E 42 70 13
E 43 71 13
E 47 72 13
E 49 73 13
E 50 75 13
E 51 76 13
E 52 77 13
E 53 78 13
E 56 81 13
E 57 82 13
E 58 83 13
E 59 84 13
E 63 64 5
E 64 65 5
E 65 66 5
E 66 67 5
E 68 69 5
E 69 70 5
E 70 71 5
E 73 74 5
E 74 75 5
E 75 76 5
E 77 78 5
E 78 79 5
E 79 80 5
E 80 81 5
E 81 82 5
E 82 83 5
E 83 84 5
E 63 85 13
E 65 86 13
E 67 87 13
E 68 89 13
E 70 90 13
E 71 91 13
E 72 95 13
E 73 97 13
E 74 98 13
E 75 99 13
E 76 100 13
E 77 101 13
E 78 102 13
E 80 103 13
E 81 104 13
E 82 105 13
E 83 106 13
E 84 107 13
E 87 88 5
E 88 89 5
E 90 91 5
E 91 92 5
E 92 93 5
E 93 94 5
E 94 95 5
E 95 96 5
E 96 97 5
E 97 98 5
E 98 99 5
E 99 100 5
E 101 102 5
E 103 104 5
E 104 105 5
E 105 106 5
E 106 107 5
E 107 108 5
E 108 109 5
E 109 110 5
E 85 111 13
E 86 113 13
E 87 115 13
E 89 116 13
E 90 118 13
E 91 119 13
E 92 120 13
E 93 121 13
E 94 122 13
E 95 123 13
E 96 124 13
E 97 125 13
E 98 126 13
E 99 127 13
E 100 128 13
E 101 129 13
E 102 130 13
E 103 132 13
E 104 133 13
E 105 134 13
E 106 135 13
E 107 136 13
E 108 137 13
E 109 138 13
E 110 139 13
E 111 112 5
E 112 113 5
E 113 114 5
E 114 115 5
E 116 117 5
E 117 118 5
E 118 119 5
E 119 120 5
E 120 121 5
E 121 122 5
E 122 123 5
E 123 124 5
E 124 125 5
E 125 126 5
E 126 127 5
E 127 128 5
E 129 130 5
E 130 131 5
E 131 132 5
E 132 133 5
E 133 134 5
E 134 135 5
E 135 136 5
E 136 137 5
E 137 138 5
E 138 139 5
E 111 140 13
E 112 141 13
E 114 142 13
E 115 143 13
E 116 145 13
E 117 146 13
E 118 147 13
E 119 148 13
E 121 149 13
E 122 150 13
E 123 151 13
E 124 152 13
E 125 153 13
E 126 154 13
E 127 155 13
E 128 156 13
E 129 160 13
E 130 161 13
E 131 162 13
E 133 163 13
E 134 164 13
E 135 165 13
E 136 166 13
E 137 167 13
E 138 168 13
E 139 169 13
E 140 141 5
E 142 143 5
E 143 144 5
E 144 145 5
E 145 146 5
E 146 147 5
E 147 148 5
E 149 150 5
E 150 151 5
E 151 152 5
E 152 153 5
E 153 154 5
E 154 155 5
E 155 156 5
E 156 157 5
E 157 158 5
E 158 159 5
E 159 160 5
E 160 161 5
E 161 162 5
E 163 164 5
E 164 165 5
E 165 166 5
E 166 167 5
E 167 168 5
E 168 169 5
E 140 170 13
E 141 171 13
E 142 173 13
E 143 174 13
E 144 175 13
E 145 176 13
E 146 177 13
E 147 178 13
E 148 179 13
E 149 181 13
E 150 182 13
E 151 183 13
E 152 184 13
E 153 185 13
E 154 186 13
E 155 187 13
E 156 188 13
E 157 189 13
E 158 190 13
E 159 191 13
E 160 192 13
E 161 193 13
E 162 194 13
E 163 196 13
E 164 197 13
E 165 198 13
E 166 199 13
E 167 200 13
E 168 201 13
E 169 202 13
E 170 171 5
E 171 172 5
E 172 173 5
E 173 174 5
E 174 175 5
E 175 176 5
E 176 177 5
E 177 178 5
E 178 179 5
E 179 180 5
E 180 181 5
E 181 182 5
E 182 183 5
E 183 184 5
E 184 185 5
E 185 186 5
E 186 187 5
E 187 188 5
E 188 189 5
E 189 190 5
E 190 191 5
E 191 192 5
E 192 193 5
E 193 194 5
E 194 195 5
E 195 196 5
E 196 197 5
E 197 198 5
E 198 199 5
E 199 200 5
E 200 201 5
E 201 202 5
E 170 203 13
E 173 206 13
E 174 207 13
E 175 208 13
E 176 209 13
E 177 210 13
E 178 211 13
E 179 212 13
E 180 213 13
E 181 214 13
E 182 215 13
E 183 216 13
E 184 217 13
E 187 220 13
E 188 221 13
E 189 222 13
E 190 223 13
E 191 224 13
E 192 225 13
E 193 226 13
E 194 227 13
E 195 228 13
E 196 229 13
E 197 230 13
E 198 231 13
E 199 232 13
E 200 233 13
E 201 234 13
E 202 235 13
E 203 204 5
E 204 205 5
E 205 206 5
E 206 207 5
E 207 208 5
E 208 209 5
E 209 210 5
E 210 211 5
E 211 212 5
E 212 213 5
E 213 214 5
E 214 215 5
E 215 216 5
E 216 217 5
E 217 218 5
E 218 219 5
E 219 220 5
E 220 221 5
E 221 222 5
E 222 223 5
E 223 224 5
E 224 225 5
E 225 226 5
E 226 227 5
E 227 228 5
E 228 229 5
E 229 230 5
E 230 231 5
E 231 232 5
E 232 233 5
E 233 234 5
E 234 235 5
E 204 237 13
E 207 240 13
E 208 241 13
E 209 242 13
E 210 243 13
E 211 244 13
E 212 245 13
E 213 246 13
E 214 247 13
E 216 248 13
E 217 249 13
E 218 250 13
E 219 251 13
E 221 252 13
E 222 253 13
E 223 254 13
E 224 255 13
E 225 256 13
E 229 257 13
E 230 258 13
E 232 259 13
E 233 260 13
E 234 261 13
E 235 262 13
E 236 237 5
E 237 238 5
E 238 239 5
E 239 240 5
E 240 241 5
E 241 242 5
E 242 243 5
E 243 244 5
E 244 245 5
E 245 246 5
E 246 247 5
E 248 249 5
E 249 250 5
E 250 251 5
E 252 253 5
E 253 254 5
E 254 255 5
E 255 256 5
E 257 258 5
E 259 260 5
E 260 261 5
E 261 262 5
E 236 263 13
E 237 264 13
E 238 265 13
E 239 266 13
E 241 267 13
E 242 268 13
E 243 269 13
E 244 270 13
E 245 271 13
E 246 272 13
E 247 273 13
E 248 275 13
E 249 276 13
E 250 277 13
E 251 278 13
E 252 280 13
E 255 283 13
E 256 284 13
E 257 288 13
E 258 289 13
E 259 291 13
E 260 292 13
E 261 293 13
E 262 294 13
E 263 264 5
E 264 265 5
E 265 266 5
E 267 268 5
E 268 269 5
E 269 270 5
E 270 271 5
E 271 272 5
E 272 273 5
E 273 274 5
E 274 275 5
E 275 276 5
E 276 277 5
E 277 278 5
E 278 279 5
E 279 280 5
E 280 281 5
E 281 282 5
E 282 283 5
E 283 284 5
E 284 285 5
E 285 286 5
E 286 287 5
E 287 288 5
E 288 289 5
E 289 290 5
E 290 291 5
E 291 292 5
E 292 293 5
E 293 294 5
E 263 295 13
E 264 296 13
E 265 297 13
E 266 298 13
E 267 300 13
E 268 301 13
E 269 302 13
E 271 303 13
E 272 304 13
E 273 305 13
E 274 306 13
E 275 307 13
E 276 308 13
E 277 309 13
E 278 310 13
E 279 311 13
E 283 312 13
E 284 313 13
E 285 314 13
E 286 315 13
E 287 316 13
E 288 317 13
E 289 318 13
E 290 319 13
E 291 320 13
E 292 321 13
E 293 322 13
E 294 323 13
E 295 296 5
E 296 297 5
E 297 298 5
E 298 299 5
E 299 300 5
E 300 301 5
E 301 302 5
E 303 304 5
E 304 305 5
E 305 306 5
E 306 307 5
E 307 308 5
E 308 309 5
E 309 310 5
E 310 311 5
E 312 313 5
E 313 314 5
E 314 315 5
E 315 316 5
E 316 317 5
E 317 318 5
E 318 319 5
E 319 320 5
E 320 321 5
E 321 322 5
E 322 323 5
E 295 324 13
E 296 325 13
E 297 326 13
E 298 327 13
E 299 328 13
E 300 329 13
E 302 330 13
E 303 332 13
E 304 333 13
E 305 334 13
E 306 335 13
E 307 336 13
E 308 337 13
E 309 338 13
E 310 339 13
E 311 340 13
E 312 344 13
E 313 345 13
E 317 346 13
E 318 347 13
E 319 348 13
E 323 349 13
E 324 325 5
E 325 326 5
E 326 327 5
E 327 328 5
E 328 329 5
E 330 331 5
E 331 332 5
E 332 333 5
E 333 334 5
E 334 335 5
E 335 336 5
E 336 337 5
E 337 338 5
E 338 339 5
E 339 340 5
E 340 341 5
E 341 342 5
E 342 343 5
E 343 344 5
E 344 345 5
E 346 347 5
E 347 348 5
E 325 351 13
E 326 352 13
E 327 353 13
E 328 354 13
E 329 355 13
E 330 357 13
E 331 358 13
E 332 359 13
E 333 360 13
E 334 361 13
E 335 362 13
E 336 363 13
E 337 364 13
E 340 367 13
E 341 368 13
E 342 369 13
E 343 370 13
E 344 371 13
E 345 372 13
E 346 376 13
E 347 377 13
E 348 378 13
E 349 382 13
E 350 351 5
E 351 352 5
E 352 353 5
E 353 354 5
E 354 355 5
E 355 356 5
E 356 357 5
E 357 358 5
E 358 359 5
E 359 360 5
E 360 361 5
E 361 362 5
E 362 363 5
E 363 364 5
E 364 365 5
E 365 366 5
E 366 367 5
E 367 368 5
E 368 369 5
E 369 370 5
E 370 371 5
E 371 372 5
E 372 373 5
E 373 374 5
E 374 375 5
E 375 376 5
E 376 377 5
E 377 378 5
E 378 379 5
E 379 380 5
E 380 381 5
E 381 382 5
E 350 383 13
E 351 384 13
E 352 385 13
E 353 386 13
E 354 387 13
E 355 388 13
E 359 389 13
E 360 390 13
E 361 391 13
E 363 392 13
E 364 393 13
E 365 394 13
E 366 395 13
E 367 396 13
E 370 399 13
E 371 400 13
E 372 401 13
E 373 402 13
E 374 403 13
E 375 404 13
E 376 405 13
E 377 406 13
E 378 407 13
E 379 408 13
E 380 409 13
E 381 410 13
E 382 411 13
E 383 384 5
E 384 385 5
E 385 386 5
E 386 387 5
E 387 388 5
E 389 390 5
E 390 391 5
E 392 393 5
E 393 394 5
E 394 395 5
E 395 396 5
E 396 397 5
E 397 398 5
E 398 399 5
E 399 400 5
E 400 401 5
E 401 402 5
E 402 403 5
E 403 404 5
E 404 405 5
E 405 406 5
E 406 407 5
E 407 408 5
E 408 409 5
E 409 410 5
E 410 411 5
E 383 412 13
E 384 413 13
E 385 414 13
E 386 415 13
E 387 416 13
E 388 417 13
E 389 421 13
E 390 422 13
E 391 423 13
E 392 425 13
E 393 426 13
E 394 427 13
E 395 428 13
E 396 429 13
E 397 430 13
E 398 431 13
E 399 432 13
E 401 433 13
E 402 434 13
E 406 435 13
E 408 436 13
E 409 437 13
E 410 438 13
E 411 439 13
E 412 413 5
E 413 414 5
E 414 415 5
E 415 416 5
E 416 417 5
E 417 418 5
E 418 419 5
E 419 420 5
E 420 421 5
E 421 422 5
E 422 423 5
E 423 424 5
E 424 425 5
E 425 426 5
E 426 427 5
E 427 428 5
E 428 429 5
E 429 430 5
E 430 431 5
E 431 432 5
E 433 434 5
E 436 437 5
E 437 438 5
E 438 439 5
E 412 440 13
E 414 441 13
E 415 442 13
E 416 443 13
E 417 444 13
E 418 445 13
E 419 446 13
E 420 447 13
E 421 448 13
E 425 449 13
E 426 450 13
E 428 451 13
E 429 452 13
E 432 455 13
E 433 457 13
E 434 458 13
E 435 462 13
E 436 464 13
E 438 465 13
E 439 466 13
E 441 442 5
E 442 443 5
E 443 444 5
E 444 445 5
E 445 446 5
E 446 447 5
E 447 448 5
E 449 450 5
E 451 452 5
E 452 453 5
E 453 454 5
E 454 455 5
E 455 456 5
E 456 457 5
E 457 458 5
E 458 459 5
E 459 460 5
E 460 461 5
E 461 462 5
E 462 463 5
E 463 464 5
E 465 466 5
E 440 467 13
E 441 469 13
E 442 470 13
E 446 471 13
E 448 472 13
E 449 476 13
E 450 477 13
E 451 479 13
E 452 480 13
E 456 481 13
E 457 482 13
E 458 483 13
E 459 484 13
E 460 485 13
E 463 488 13
E 464 489 13
E 465 491 13
E 466 492 13
E 467 468 5
E 468 469 5
E 469 470 5
E 472 473 5
E 473 474 5
E 474 475 5
E 475 476 5
E 476 477 5
E 477 478 5
E 478 479 5
E 479 480 5
E 481 482 5
E 482 483 5
E 483 484 5
E 484 485 5
E 485 486 5
E 486 487 5
E 487 488 5
E 488 489 5
E 489 490 5
E 490 491 5
E 491 492 5
E 467 493 13
E 468 494 13
E 469 495 13
E 470 496 13
E 471 500 13
E 472 502 13
E 473 503 13
E 474 504 13
E 475 505 13
E 476 506 13
E 477 507 13
E 478 508 13
E 479 509 13
E 480 510 13
E 481 511 13
E 482 512 13
E 483 513 13
E 484 514 13
E 486 515 13
E 487 516 13
E 489 517 13
E 491 518 13
E 492 519 13
E 493 494 5
E 494 495 5
E 495 496 5
E 496 497 5
E 497 498 5
E 498 499 5
E 499 500 5
E 500 501 5
E 501 502 5
E 502 503 5
E 503 504 5
E 504 505 5
E 505 506 5
E 506 507 5
E 507 508 5
E 508 509 5
E 509 510 5
E 511 512 5
E 512 513 5
E 513 514 5
E 515 516 5
E 518 519 5
E 493 520 13
E 494 521 13
E 495 522 13
E 496 523 13
E 497 524 13
E 498 525 13
E 499 526 13
E 500 527 13
E 501 528 13
E 502 529 13
E 503 530 13
E 504 531 13
E 505 532 13
E 506 533 13
E 507 534 13
E 508 535 13
E 509 536 13
E 510 537 13
E 511 538 13
E 512 539 13
E 513 540 13
E 514 541 13
E 515 543 13
E 516 544 13
E 517 546 13
E 518 548 13
E 520 521 5
E 521 522 5
E 522 523 5
E 523 524 5
E 524 525 5
E 525 526 5
E 526 527 5
E 527 528 5
E 528 529 5
E 529 530 5
E 530 531 5
E 531 532 5
E 532 533 5
E 533 534 5
E 534 535 5
E 535 536 5
E 536 537 5
E 538 539 5
E 539 540 5
E 540 541 5
E 541 542 5
E 542 543 5
E 543 544 5
E 544 545 5
E 545 546 5
E 546 547 5
E 547 548 5
E 520 549 13
E 521 550 13
E 522 551 13
E 523 552 13
E 524 553 13
E 525 554 13
E 526 555 13
E 528 556 13
E 531 557 13
E 532 558 13
E 533 559 13
E 534 560 13
E 535 561 13
E 536 562 13
E 537 563 13
E 538 564 13
E 539 565 13
E 543 566 13
E 544 567 13
E 545 568 13
E 546 569 13
E 547 570 13
E 548 571 13
E 549 550 5
E 550 551 5
E 551 552 5
E 552 553 5
E 553 554 5
E 554 555 5
E 557 558 5
E 558 559 5
E 559 560 5
E 560 561 5
E 561 562 5
E 562 563 5
E 564 565 5
E 566 567 5
E 567 568 5
E 568 569 5
E 569 570 5
E 570 571 5
E 571 572 5
END

SECTION Terminals
Terminals 11
T 31
T 118
T 164
T 189
T 384
T 438
T 463
T 467
T 476
T 505
T 543
END

EOF
